p cnf 60 199
1 2 3 4 0
5 6 7 8 0
9 10 11 12 0
13 14 15 16 0
17 18 19 20 0
21 22 23 24 0
25 26 27 28 0
29 30 31 32 0
33 34 35 36 0
37 38 39 40 0
41 42 43 44 0
45 46 47 48 0
49 50 51 52 0
53 54 55 56 0
57 58 59 60 0
-1 -5 0
-2 -6 0
-3 -7 0
-4 -8 0
-1 -9 0
-2 -10 0
-3 -11 0
-4 -12 0
-1 -25 0
-2 -26 0
-3 -27 0
-4 -28 0
-1 -29 0
-2 -30 0
-3 -31 0
-4 -32 0
-1 -37 0
-2 -38 0
-3 -39 0
-4 -40 0
-1 -49 0
-2 -50 0
-3 -51 0
-4 -52 0
-1 -57 0
-2 -58 0
-3 -59 0
-4 -60 0
-5 -9 0
-6 -10 0
-7 -11 0
-8 -12 0
-5 -13 0
-6 -14 0
-7 -15 0
-8 -16 0
-5 -17 0
-6 -18 0
-7 -19 0
-8 -20 0
-5 -37 0
-6 -38 0
-7 -39 0
-8 -40 0
-5 -41 0
-6 -42 0
-7 -43 0
-8 -44 0
-5 -45 0
-6 -46 0
-7 -47 0
-8 -48 0
-5 -53 0
-6 -54 0
-7 -55 0
-8 -56 0
-5 -57 0
-6 -58 0
-7 -59 0
-8 -60 0
-9 -21 0
-10 -22 0
-11 -23 0
-12 -24 0
-9 -49 0
-10 -50 0
-11 -51 0
-12 -52 0
-9 -53 0
-10 -54 0
-11 -55 0
-12 -56 0
-13 -21 0
-14 -22 0
-15 -23 0
-16 -24 0
-13 -33 0
-14 -34 0
-15 -35 0
-16 -36 0
-13 -41 0
-14 -42 0
-15 -43 0
-16 -44 0
-13 -53 0
-14 -54 0
-15 -55 0
-16 -56 0
-17 -21 0
-18 -22 0
-19 -23 0
-20 -24 0
-17 -29 0
-18 -30 0
-19 -31 0
-20 -32 0
-17 -37 0
-18 -38 0
-19 -39 0
-20 -40 0
-17 -49 0
-18 -50 0
-19 -51 0
-20 -52 0
-17 -53 0
-18 -54 0
-19 -55 0
-20 -56 0
-17 -57 0
-18 -58 0
-19 -59 0
-20 -60 0
-21 -29 0
-22 -30 0
-23 -31 0
-24 -32 0
-21 -33 0
-22 -34 0
-23 -35 0
-24 -36 0
-21 -37 0
-22 -38 0
-23 -39 0
-24 -40 0
-25 -29 0
-26 -30 0
-27 -31 0
-28 -32 0
-25 -33 0
-26 -34 0
-27 -35 0
-28 -36 0
-25 -37 0
-26 -38 0
-27 -39 0
-28 -40 0
-25 -41 0
-26 -42 0
-27 -43 0
-28 -44 0
-25 -45 0
-26 -46 0
-27 -47 0
-28 -48 0
-25 -49 0
-26 -50 0
-27 -51 0
-28 -52 0
-29 -37 0
-30 -38 0
-31 -39 0
-32 -40 0
-29 -41 0
-30 -42 0
-31 -43 0
-32 -44 0
-33 -37 0
-34 -38 0
-35 -39 0
-36 -40 0
-33 -53 0
-34 -54 0
-35 -55 0
-36 -56 0
-41 -49 0
-42 -50 0
-43 -51 0
-44 -52 0
-41 -53 0
-42 -54 0
-43 -55 0
-44 -56 0
-41 -57 0
-42 -58 0
-43 -59 0
-44 -60 0
-49 -53 0
-50 -54 0
-51 -55 0
-52 -56 0
-49 -57 0
-50 -58 0
-51 -59 0
-52 -60 0
